N = 11;
H = 5;
T = 2;

avail = array3d(1..N, 1..H, 1..T, [0, 8, 2, 6, 1, 3, 4, 0, 0, 8, 7, 6, 9, 10, 1, 5, 1, 1, 3, 4, 8, 8, 4, 9, 6, 8, 6, 4, 0, 7, 5, 2, 1, 8, 4, 2, 4, 3, 10, 8, 7, 0, 1, 2, 8, 6, 1, 2, 6, 4, 10, 3, 7, 9, 5, 7, 4, 9, 0, 4, 10, 3, 7, 0, 7, 10, 10, 4, 6, 7, 6, 3, 6, 1, 5, 2, 2, 1, 6, 7, 7, 1, 9, 3, 1, 9, 5, 3, 7, 0, 6, 3, 1, 3, 3, 2, 0, 1, 5, 5, 5, 4, 10, 0, 9, 6, 4, 7, 0, 8]);

r = array2d(1..H, 1..T, [2, 0, 5, 4, 0, 4, 6, 3, 4, 6]);
